p tw 144 23761 2 
1 3 
1 4 
1 5 
1 6 
1 7 
1 8 
1 9 
1 10 
1 11 
1 12 
1 13 
1 16 
1 25 
1 36 
1 37 
1 47 
1 49 
1 57 
1 61 
1 62 
1 73 
1 75 
1 85 
1 91 
1 97 
1 101 
1 109 
1 118 
1 121 
1 126 
1 133 
1 140 
2 3 
2 4 
2 5 
2 6 
2 7 
2 8 
2 9 
2 10 
2 11 
2 12 
2 14 
2 17 
2 26 
2 31 
2 38 
2 45 
2 50 
2 56 
2 62 
2 70 
2 74 
2 78 
2 85 
2 86 
2 98 
2 107 
2 110 
2 120 
2 122 
2 124 
2 134 
2 135 
3 4 
3 5 
3 6 
3 7 
3 8 
3 9 
3 10 
3 11 
3 12 
3 13 
3 15 
3 27 
3 29 
3 38 
3 39 
3 51 
3 52 
3 63 
3 72 
3 75 
3 83 
3 87 
3 94 
3 99 
3 105 
3 111 
3 116 
3 123 
3 127 
3 135 
3 138 
4 5 
4 6 
4 7 
4 8 
4 9 
4 10 
4 11 
4 12 
4 14 
4 16 
4 28 
4 30 
4 40 
4 48 
4 52 
4 53 
4 64 
4 67 
4 76 
4 81 
4 88 
4 92 
4 97 
4 100 
4 112 
4 119 
4 123 
4 124 
4 136 
4 142 
5 6 
5 7 
5 8 
5 9 
5 10 
5 11 
5 12 
5 17 
5 18 
5 27 
5 29 
5 37 
5 41 
5 50 
5 53 
5 64 
5 65 
5 77 
5 84 
5 89 
5 95 
5 101 
5 106 
5 113 
5 117 
5 125 
5 128 
5 137 
5 139 
6 7 
6 8 
6 9 
6 10 
6 11 
6 12 
6 15 
6 18 
6 26 
6 30 
6 40 
6 42 
6 54 
6 60 
6 66 
6 71 
6 73 
6 78 
6 90 
6 93 
6 102 
6 104 
6 114 
6 115 
6 126 
6 130 
6 137 
6 138 
7 8 
7 9 
7 10 
7 11 
7 12 
7 19 
7 24 
7 31 
7 35 
7 43 
7 46 
7 51 
7 55 
7 67 
7 68 
7 76 
7 79 
7 89 
7 91 
7 102 
7 103 
7 109 
7 115 
7 127 
7 129 
7 134 
7 139 
8 9 
8 10 
8 11 
8 12 
8 19 
8 20 
8 28 
8 32 
8 39 
8 44 
8 56 
8 59 
8 65 
8 68 
8 80 
8 82 
8 90 
8 92 
8 104 
8 108 
8 110 
8 116 
8 121 
8 128 
8 140 
8 141 
9 10 
9 11 
9 12 
9 20 
9 21 
9 25 
9 33 
9 42 
9 45 
9 57 
9 58 
9 63 
9 69 
9 74 
9 81 
9 93 
9 96 
9 103 
9 105 
9 113 
9 117 
9 129 
9 131 
9 136 
9 141 
10 11 
10 12 
10 21 
10 22 
10 32 
10 34 
10 43 
10 46 
10 54 
10 58 
10 61 
10 70 
10 77 
10 82 
10 87 
10 94 
10 98 
10 106 
10 112 
10 118 
10 130 
10 132 
10 142 
10 143 
11 12 
11 22 
11 23 
11 33 
11 35 
11 44 
11 47 
11 49 
11 59 
11 66 
11 71 
11 79 
11 83 
11 86 
11 95 
11 100 
11 107 
11 111 
11 119 
11 125 
11 131 
11 143 
11 144 
12 23 
12 24 
12 34 
12 36 
12 41 
12 48 
12 55 
12 60 
12 69 
12 72 
12 80 
12 84 
12 88 
12 96 
12 99 
12 108 
12 114 
12 120 
12 122 
12 132 
12 133 
12 144 
13 14 
13 15 
13 16 
13 17 
13 18 
13 19 
13 20 
13 21 
13 22 
13 23 
13 24 
13 25 
13 29 
13 37 
13 38 
13 49 
13 52 
13 61 
13 72 
13 73 
13 83 
13 85 
13 94 
13 97 
13 105 
13 109 
13 116 
13 121 
13 127 
13 133 
13 138 
14 15 
14 16 
14 17 
14 18 
14 19 
14 20 
14 21 
14 22 
14 23 
14 24 
14 26 
14 30 
14 38 
14 48 
14 50 
14 53 
14 62 
14 67 
14 74 
14 81 
14 86 
14 92 
14 97 
14 98 
14 110 
14 119 
14 122 
14 123 
14 134 
14 142 
15 16 
15 17 
15 18 
15 19 
15 20 
15 21 
15 22 
15 23 
15 24 
15 26 
15 27 
15 39 
15 40 
15 51 
15 60 
15 63 
15 71 
15 73 
15 75 
15 87 
15 93 
15 99 
15 104 
15 111 
15 115 
15 123 
15 130 
15 135 
15 137 
16 17 
16 18 
16 19 
16 20 
16 21 
16 22 
16 23 
16 24 
16 28 
16 36 
16 40 
16 47 
16 52 
16 57 
16 62 
16 64 
16 75 
16 76 
16 88 
16 91 
16 100 
16 101 
16 112 
16 118 
16 124 
16 126 
16 136 
16 140 
17 18 
17 19 
17 20 
17 21 
17 22 
17 23 
17 24 
17 29 
17 31 
17 41 
17 45 
17 53 
17 56 
17 65 
17 70 
17 77 
17 78 
17 85 
17 89 
17 101 
17 107 
17 113 
17 120 
17 124 
17 125 
17 135 
17 137 
18 19 
18 20 
18 21 
18 22 
18 23 
18 24 
18 27 
18 30 
18 37 
18 42 
18 50 
18 54 
18 64 
18 66 
18 78 
18 84 
18 90 
18 95 
18 102 
18 106 
18 114 
18 117 
18 126 
18 128 
18 138 
18 139 
19 20 
19 21 
19 22 
19 23 
19 24 
19 28 
19 31 
19 39 
19 43 
19 55 
19 59 
19 65 
19 67 
19 79 
19 82 
19 90 
19 91 
19 103 
19 108 
19 110 
19 115 
19 121 
19 127 
19 139 
19 141 
20 21 
20 22 
20 23 
20 24 
20 25 
20 32 
20 42 
20 44 
20 56 
20 58 
20 63 
20 68 
20 74 
20 80 
20 92 
20 96 
20 103 
20 104 
20 113 
20 116 
20 128 
20 131 
20 136 
20 140 
21 22 
21 23 
21 24 
21 32 
21 33 
21 43 
21 45 
21 54 
21 57 
21 61 
21 69 
21 77 
21 81 
21 87 
21 93 
21 98 
21 105 
21 112 
21 117 
21 129 
21 132 
21 141 
21 143 
22 23 
22 24 
22 33 
22 34 
22 44 
22 46 
22 49 
22 58 
22 66 
22 70 
22 79 
22 82 
22 86 
22 94 
22 100 
22 106 
22 111 
22 118 
22 125 
22 130 
22 142 
22 144 
23 24 
23 34 
23 35 
23 41 
23 47 
23 55 
23 59 
23 69 
23 71 
23 80 
23 83 
23 88 
23 95 
23 99 
23 107 
23 114 
23 119 
23 122 
23 131 
23 133 
23 143 
24 35 
24 36 
24 46 
24 48 
24 51 
24 60 
24 68 
24 72 
24 76 
24 84 
24 89 
24 96 
24 102 
24 108 
24 109 
24 120 
24 129 
24 132 
24 134 
24 144 
25 26 
25 27 
25 28 
25 29 
25 30 
25 31 
25 32 
25 33 
25 34 
25 35 
25 36 
25 37 
25 42 
25 49 
25 58 
25 61 
25 63 
25 73 
25 74 
25 85 
25 96 
25 97 
25 103 
25 109 
25 113 
25 121 
25 131 
25 133 
25 136 
26 27 
26 28 
26 29 
26 30 
26 31 
26 32 
26 33 
26 34 
26 35 
26 36 
26 38 
26 40 
26 50 
26 60 
26 62 
26 71 
26 73 
26 74 
26 86 
26 93 
26 98 
26 104 
26 110 
26 115 
26 122 
26 130 
26 134 
26 137 
27 28 
27 29 
27 30 
27 31 
27 32 
27 33 
27 34 
27 35 
27 36 
27 37 
27 39 
27 50 
27 51 
27 63 
27 64 
27 75 
27 84 
27 87 
27 95 
27 99 
27 106 
27 111 
27 117 
27 123 
27 128 
27 135 
27 139 
28 29 
28 30 
28 31 
28 32 
28 33 
28 34 
28 35 
28 36 
28 39 
28 40 
28 52 
28 59 
28 64 
28 65 
28 76 
28 82 
28 88 
28 90 
28 100 
28 108 
28 110 
28 112 
28 121 
28 124 
28 136 
28 141 
29 30 
29 31 
29 32 
29 33 
29 34 
29 35 
29 36 
29 38 
29 41 
29 52 
29 53 
29 65 
29 72 
29 77 
29 83 
29 89 
29 94 
29 101 
29 105 
29 113 
29 116 
29 125 
29 127 
29 137 
29 138 
30 31 
30 32 
30 33 
30 34 
30 35 
30 36 
30 42 
30 48 
30 53 
30 54 
30 66 
30 67 
30 78 
30 81 
30 90 
30 92 
30 97 
30 102 
30 114 
30 119 
30 123 
30 126 
30 138 
30 142 
31 32 
31 33 
31 34 
31 35 
31 36 
31 43 
31 45 
31 55 
31 56 
31 67 
31 70 
31 78 
31 79 
31 85 
31 91 
31 103 
31 107 
31 115 
31 120 
31 124 
31 127 
31 135 
31 139 
32 33 
32 34 
32 35 
32 36 
32 43 
32 44 
32 54 
32 56 
32 61 
32 68 
32 77 
32 80 
32 87 
32 92 
32 98 
32 104 
32 112 
32 116 
32 128 
32 132 
32 140 
32 143 
33 34 
33 35 
33 36 
33 44 
33 45 
33 49 
33 57 
33 66 
33 69 
33 79 
33 81 
33 86 
33 93 
33 100 
33 105 
33 111 
33 117 
33 125 
33 129 
33 141 
33 144 
34 35 
34 36 
34 41 
34 46 
34 55 
34 58 
34 69 
34 70 
34 80 
34 82 
34 88 
34 94 
34 99 
34 106 
34 114 
34 118 
34 122 
34 130 
34 133 
34 142 
35 36 
35 46 
35 47 
35 51 
35 59 
35 68 
35 71 
35 76 
35 83 
35 89 
35 95 
35 102 
35 107 
35 109 
35 119 
35 129 
35 131 
35 134 
35 143 
36 47 
36 48 
36 57 
36 60 
36 62 
36 72 
36 75 
36 84 
36 91 
36 96 
36 101 
36 108 
36 118 
36 120 
36 126 
36 132 
36 140 
36 144 
37 38 
37 39 
37 40 
37 41 
37 42 
37 43 
37 44 
37 45 
37 46 
37 47 
37 48 
37 49 
37 50 
37 61 
37 64 
37 73 
37 84 
37 85 
37 95 
37 97 
37 106 
37 109 
37 117 
37 121 
37 128 
37 133 
37 139 
38 39 
38 40 
38 41 
38 42 
38 43 
38 44 
38 45 
38 46 
38 47 
38 48 
38 50 
38 52 
38 62 
38 72 
38 74 
38 83 
38 86 
38 94 
38 98 
38 105 
38 110 
38 116 
38 122 
38 127 
38 134 
38 138 
39 40 
39 41 
39 42 
39 43 
39 44 
39 45 
39 46 
39 47 
39 48 
39 51 
39 59 
39 63 
39 65 
39 75 
39 82 
39 87 
39 90 
39 99 
39 108 
39 110 
39 111 
39 121 
39 123 
39 135 
39 141 
40 41 
40 42 
40 43 
40 44 
40 45 
40 46 
40 47 
40 48 
40 52 
40 60 
40 64 
40 71 
40 73 
40 76 
40 88 
40 93 
40 100 
40 104 
40 112 
40 115 
40 124 
40 130 
40 136 
40 137 
41 42 
41 43 
41 44 
41 45 
41 46 
41 47 
41 48 
41 53 
41 55 
41 65 
41 69 
41 77 
41 80 
41 88 
41 89 
41 99 
41 101 
41 113 
41 114 
41 122 
41 125 
41 133 
41 137 
42 43 
42 44 
42 45 
42 46 
42 47 
42 48 
42 54 
42 58 
42 63 
42 66 
42 74 
42 78 
42 90 
42 96 
42 102 
42 103 
42 113 
42 114 
42 126 
42 131 
42 136 
42 138 
43 44 
43 45 
43 46 
43 47 
43 48 
43 54 
43 55 
43 61 
43 67 
43 77 
43 79 
43 87 
43 91 
43 98 
43 103 
43 112 
43 115 
43 127 
43 132 
43 139 
43 143 
44 45 
44 46 
44 47 
44 48 
44 49 
44 56 
44 66 
44 68 
44 79 
44 80 
44 86 
44 92 
44 100 
44 104 
44 111 
44 116 
44 125 
44 128 
44 140 
44 144 
45 46 
45 47 
45 48 
45 56 
45 57 
45 69 
45 70 
45 78 
45 81 
45 85 
45 93 
45 105 
45 107 
45 117 
45 120 
45 124 
45 129 
45 135 
45 141 
46 47 
46 48 
46 51 
46 58 
46 68 
46 70 
46 76 
46 82 
46 89 
46 94 
46 102 
46 106 
46 109 
46 118 
46 129 
46 130 
46 134 
46 142 
47 48 
47 57 
47 59 
47 62 
47 71 
47 75 
47 83 
47 91 
47 95 
47 101 
47 107 
47 118 
47 119 
47 126 
47 131 
47 140 
47 143 
48 53 
48 60 
48 67 
48 72 
48 81 
48 84 
48 92 
48 96 
48 97 
48 108 
48 119 
48 120 
48 123 
48 132 
48 142 
48 144 
49 50 
49 51 
49 52 
49 53 
49 54 
49 55 
49 56 
49 57 
49 58 
49 59 
49 60 
49 61 
49 66 
49 73 
49 79 
49 85 
49 86 
49 97 
49 100 
49 109 
49 111 
49 121 
49 125 
49 133 
49 144 
50 51 
50 52 
50 53 
50 54 
50 55 
50 56 
50 57 
50 58 
50 59 
50 60 
50 62 
50 64 
50 74 
50 84 
50 86 
50 95 
50 98 
50 106 
50 110 
50 117 
50 122 
50 128 
50 134 
50 139 
51 52 
51 53 
51 54 
51 55 
51 56 
51 57 
51 58 
51 59 
51 60 
51 63 
51 68 
51 75 
51 76 
51 87 
51 89 
51 99 
51 102 
51 109 
51 111 
51 123 
51 129 
51 134 
51 135 
52 53 
52 54 
52 55 
52 56 
52 57 
52 58 
52 59 
52 60 
52 64 
52 72 
52 76 
52 83 
52 88 
52 94 
52 100 
52 105 
52 112 
52 116 
52 124 
52 127 
52 136 
52 138 
53 54 
53 55 
53 56 
53 57 
53 58 
53 59 
53 60 
53 65 
53 67 
53 77 
53 81 
53 89 
53 92 
53 97 
53 101 
53 113 
53 119 
53 123 
53 125 
53 137 
53 142 
54 55 
54 56 
54 57 
54 58 
54 59 
54 60 
54 61 
54 66 
54 77 
54 78 
54 87 
54 90 
54 98 
54 102 
54 112 
54 114 
54 126 
54 132 
54 138 
54 143 
55 56 
55 57 
55 58 
55 59 
55 60 
55 67 
55 69 
55 79 
55 80 
55 88 
55 91 
55 99 
55 103 
55 114 
55 115 
55 122 
55 127 
55 133 
55 139 
56 57 
56 58 
56 59 
56 60 
56 68 
56 70 
56 78 
56 80 
56 85 
56 92 
56 104 
56 107 
56 116 
56 120 
56 124 
56 128 
56 135 
56 140 
57 58 
57 59 
57 60 
57 62 
57 69 
57 75 
57 81 
57 91 
57 93 
57 101 
57 105 
57 117 
57 118 
57 126 
57 129 
57 140 
57 141 
58 59 
58 60 
58 63 
58 70 
58 74 
58 82 
58 94 
58 96 
58 103 
58 106 
58 113 
58 118 
58 130 
58 131 
58 136 
58 142 
59 60 
59 65 
59 71 
59 82 
59 83 
59 90 
59 95 
59 107 
59 108 
59 110 
59 119 
59 121 
59 131 
59 141 
59 143 
60 71 
60 72 
60 73 
60 84 
60 93 
60 96 
60 104 
60 108 
60 115 
60 120 
60 130 
60 132 
60 137 
60 144 
61 62 
61 63 
61 64 
61 65 
61 66 
61 67 
61 68 
61 69 
61 70 
61 71 
61 72 
61 73 
61 77 
61 85 
61 87 
61 97 
61 98 
61 109 
61 112 
61 121 
61 132 
61 133 
61 143 
62 63 
62 64 
62 65 
62 66 
62 67 
62 68 
62 69 
62 70 
62 71 
62 72 
62 74 
62 75 
62 86 
62 91 
62 98 
62 101 
62 110 
62 118 
62 122 
62 126 
62 134 
62 140 
63 64 
63 65 
63 66 
63 67 
63 68 
63 69 
63 70 
63 71 
63 72 
63 74 
63 75 
63 87 
63 96 
63 99 
63 103 
63 111 
63 113 
63 123 
63 131 
63 135 
63 136 
64 65 
64 66 
64 67 
64 68 
64 69 
64 70 
64 71 
64 72 
64 76 
64 84 
64 88 
64 95 
64 100 
64 106 
64 112 
64 117 
64 124 
64 128 
64 136 
64 139 
65 66 
65 67 
65 68 
65 69 
65 70 
65 71 
65 72 
65 77 
65 82 
65 89 
65 90 
65 101 
65 108 
65 110 
65 113 
65 121 
65 125 
65 137 
65 141 
66 67 
66 68 
66 69 
66 70 
66 71 
66 72 
66 78 
66 79 
66 86 
66 90 
66 100 
66 102 
66 111 
66 114 
66 125 
66 126 
66 138 
66 144 
67 68 
67 69 
67 70 
67 71 
67 72 
67 79 
67 81 
67 91 
67 92 
67 97 
67 103 
67 115 
67 119 
67 123 
67 127 
67 139 
67 142 
68 69 
68 70 
68 71 
68 72 
68 76 
68 80 
68 89 
68 92 
68 102 
68 104 
68 109 
68 116 
68 128 
68 129 
68 134 
68 140 
69 70 
69 71 
69 72 
69 80 
69 81 
69 88 
69 93 
69 99 
69 105 
69 114 
69 117 
69 122 
69 129 
69 133 
69 141 
70 71 
70 72 
70 78 
70 82 
70 85 
70 94 
70 106 
70 107 
70 118 
70 120 
70 124 
70 130 
70 135 
70 142 
71 72 
71 73 
71 83 
71 93 
71 95 
71 104 
71 107 
71 115 
71 119 
71 130 
71 131 
71 137 
71 143 
72 83 
72 84 
72 94 
72 96 
72 105 
72 108 
72 116 
72 120 
72 127 
72 132 
72 138 
72 144 
73 74 
73 75 
73 76 
73 77 
73 78 
73 79 
73 80 
73 81 
73 82 
73 83 
73 84 
73 85 
73 93 
73 97 
73 104 
73 109 
73 115 
73 121 
73 130 
73 133 
73 137 
74 75 
74 76 
74 77 
74 78 
74 79 
74 80 
74 81 
74 82 
74 83 
74 84 
74 86 
74 96 
74 98 
74 103 
74 110 
74 113 
74 122 
74 131 
74 134 
74 136 
75 76 
75 77 
75 78 
75 79 
75 80 
75 81 
75 82 
75 83 
75 84 
75 87 
75 91 
75 99 
75 101 
75 111 
75 118 
75 123 
75 126 
75 135 
75 140 
76 77 
76 78 
76 79 
76 80 
76 81 
76 82 
76 83 
76 84 
76 88 
76 89 
76 100 
76 102 
76 109 
76 112 
76 124 
76 129 
76 134 
76 136 
77 78 
77 79 
77 80 
77 81 
77 82 
77 83 
77 84 
77 87 
77 89 
77 98 
77 101 
77 112 
77 113 
77 125 
77 132 
77 137 
77 143 
78 79 
78 80 
78 81 
78 82 
78 83 
78 84 
78 85 
78 90 
78 102 
78 107 
78 114 
78 120 
78 124 
78 126 
78 135 
78 138 
79 80 
79 81 
79 82 
79 83 
79 84 
79 86 
79 91 
79 100 
79 103 
79 111 
79 115 
79 125 
79 127 
79 139 
79 144 
80 81 
80 82 
80 83 
80 84 
80 88 
80 92 
80 99 
80 104 
80 114 
80 116 
80 122 
80 128 
80 133 
80 140 
81 82 
81 83 
81 84 
81 92 
81 93 
81 97 
81 105 
81 117 
81 119 
81 123 
81 129 
81 141 
81 142 
82 83 
82 84 
82 90 
82 94 
82 106 
82 108 
82 110 
82 118 
82 121 
82 130 
82 141 
82 142 
83 84 
83 94 
83 95 
83 105 
83 107 
83 116 
83 119 
83 127 
83 131 
83 138 
83 143 
84 95 
84 96 
84 106 
84 108 
84 117 
84 120 
84 128 
84 132 
84 139 
84 144 
85 86 
85 87 
85 88 
85 89 
85 90 
85 91 
85 92 
85 93 
85 94 
85 95 
85 96 
85 97 
85 107 
85 109 
85 120 
85 121 
85 124 
85 133 
85 135 
86 87 
86 88 
86 89 
86 90 
86 91 
86 92 
86 93 
86 94 
86 95 
86 96 
86 98 
86 100 
86 110 
86 111 
86 122 
86 125 
86 134 
86 144 
87 88 
87 89 
87 90 
87 91 
87 92 
87 93 
87 94 
87 95 
87 96 
87 98 
87 99 
87 111 
87 112 
87 123 
87 132 
87 135 
87 143 
88 89 
88 90 
88 91 
88 92 
88 93 
88 94 
88 95 
88 96 
88 99 
88 100 
88 112 
88 114 
88 122 
88 124 
88 133 
88 136 
89 90 
89 91 
89 92 
89 93 
89 94 
89 95 
89 96 
89 101 
89 102 
89 109 
89 113 
89 125 
89 129 
89 134 
89 137 
90 91 
90 92 
90 93 
90 94 
90 95 
90 96 
90 102 
90 108 
90 110 
90 114 
90 121 
90 126 
90 138 
90 141 
91 92 
91 93 
91 94 
91 95 
91 96 
91 101 
91 103 
91 115 
91 118 
91 126 
91 127 
91 139 
91 140 
92 93 
92 94 
92 95 
92 96 
92 97 
92 104 
92 116 
92 119 
92 123 
92 128 
92 140 
92 142 
93 94 
93 95 
93 96 
93 104 
93 105 
93 115 
93 117 
93 129 
93 130 
93 137 
93 141 
94 95 
94 96 
94 105 
94 106 
94 116 
94 118 
94 127 
94 130 
94 138 
94 142 
95 96 
95 106 
95 107 
95 117 
95 119 
95 128 
95 131 
95 139 
95 143 
96 103 
96 108 
96 113 
96 120 
96 131 
96 132 
96 136 
96 144 
97 98 
97 99 
97 100 
97 101 
97 102 
97 103 
97 104 
97 105 
97 106 
97 107 
97 108 
97 109 
97 119 
97 121 
97 123 
97 133 
97 142 
98 99 
98 100 
98 101 
98 102 
98 103 
98 104 
98 105 
98 106 
98 107 
98 108 
98 110 
98 112 
98 122 
98 132 
98 134 
98 143 
99 100 
99 101 
99 102 
99 103 
99 104 
99 105 
99 106 
99 107 
99 108 
99 111 
99 114 
99 122 
99 123 
99 133 
99 135 
100 101 
100 102 
100 103 
100 104 
100 105 
100 106 
100 107 
100 108 
100 111 
100 112 
100 124 
100 125 
100 136 
100 144 
101 102 
101 103 
101 104 
101 105 
101 106 
101 107 
101 108 
101 113 
101 118 
101 125 
101 126 
101 137 
101 140 
102 103 
102 104 
102 105 
102 106 
102 107 
102 108 
102 109 
102 114 
102 126 
102 129 
102 134 
102 138 
103 104 
103 105 
103 106 
103 107 
103 108 
103 113 
103 115 
103 127 
103 131 
103 136 
103 139 
104 105 
104 106 
104 107 
104 108 
104 115 
104 116 
104 128 
104 130 
104 137 
104 140 
105 106 
105 107 
105 108 
105 116 
105 117 
105 127 
105 129 
105 138 
105 141 
106 107 
106 108 
106 117 
106 118 
106 128 
106 130 
106 139 
106 142 
107 108 
107 119 
107 120 
107 124 
107 131 
107 135 
107 143 
108 110 
108 120 
108 121 
108 132 
108 141 
108 144 
109 110 
109 111 
109 112 
109 113 
109 114 
109 115 
109 116 
109 117 
109 118 
109 119 
109 120 
109 121 
109 129 
109 133 
109 134 
110 111 
110 112 
110 113 
110 114 
110 115 
110 116 
110 117 
110 118 
110 119 
110 120 
110 121 
110 122 
110 134 
110 141 
111 112 
111 113 
111 114 
111 115 
111 116 
111 117 
111 118 
111 119 
111 120 
111 123 
111 125 
111 135 
111 144 
112 113 
112 114 
112 115 
112 116 
112 117 
112 118 
112 119 
112 120 
112 124 
112 132 
112 136 
112 143 
113 114 
113 115 
113 116 
113 117 
113 118 
113 119 
113 120 
113 125 
113 131 
113 136 
113 137 
114 115 
114 116 
114 117 
114 118 
114 119 
114 120 
114 122 
114 126 
114 133 
114 138 
115 116 
115 117 
115 118 
115 119 
115 120 
115 127 
115 130 
115 137 
115 139 
116 117 
116 118 
116 119 
116 120 
116 127 
116 128 
116 138 
116 140 
117 118 
117 119 
117 120 
117 128 
117 129 
117 139 
117 141 
118 119 
118 120 
118 126 
118 130 
118 140 
118 142 
119 120 
119 123 
119 131 
119 142 
119 143 
120 124 
120 132 
120 135 
120 144 
121 122 
121 123 
121 124 
121 125 
121 126 
121 127 
121 128 
121 129 
121 130 
121 131 
121 132 
121 133 
121 141 
122 123 
122 124 
122 125 
122 126 
122 127 
122 128 
122 129 
122 130 
122 131 
122 132 
122 133 
122 134 
123 124 
123 125 
123 126 
123 127 
123 128 
123 129 
123 130 
123 131 
123 132 
123 135 
123 142 
124 125 
124 126 
124 127 
124 128 
124 129 
124 130 
124 131 
124 132 
124 135 
124 136 
125 126 
125 127 
125 128 
125 129 
125 130 
125 131 
125 132 
125 137 
125 144 
126 127 
126 128 
126 129 
126 130 
126 131 
126 132 
126 138 
126 140 
127 128 
127 129 
127 130 
127 131 
127 132 
127 138 
127 139 
128 129 
128 130 
128 131 
128 132 
128 139 
128 140 
129 130 
129 131 
129 132 
129 134 
129 141 
130 131 
130 132 
130 137 
130 142 
131 132 
131 136 
131 143 
132 143 
132 144 
133 134 
133 135 
133 136 
133 137 
133 138 
133 139 
133 140 
133 141 
133 142 
133 143 
133 144 
134 135 
134 136 
134 137 
134 138 
134 139 
134 140 
134 141 
134 142 
134 143 
134 144 
135 136 
135 137 
135 138 
135 139 
135 140 
135 141 
135 142 
135 143 
135 144 
136 137 
136 138 
136 139 
136 140 
136 141 
136 142 
136 143 
136 144 
137 138 
137 139 
137 140 
137 141 
137 142 
137 143 
137 144 
138 139 
138 140 
138 141 
138 142 
138 143 
138 144 
139 140 
139 141 
139 142 
139 143 
139 144 
140 141 
140 142 
140 143 
140 144 
141 142 
141 143 
141 144 
142 143 
142 144 
143 144 
